language ESSENCE' 1.0
letting lastdx=96
letting cage be [
[10,15,4,0,0, 0,0, 0,0, 0,0],
[12,15,10,0,0, 0,0, 0,0, 0,0],
[39,11,2,11,1,12,1,13,1,0,0],
[40,3,11,3,12,2,12,2,13,0,0],
[2,14,14,0,0, 0,0, 0,0, 0,0],
[21,6,7,6,8,5,8,0,0, 0,0],
[7,13,2,0,0, 0,0, 0,0, 0,0],
[46,8,4,8,5,8,6,9,6,0,0],
[50,4,2,4,3,3,3,3,2,3,1],
[13,5,6,6,6,0,0, 0,0, 0,0],
[3,10,11,0,0, 0,0, 0,0, 0,0],
[20,11,9,11,10,11,11,0,0, 0,0],
[22,15,5,16,5,16,4,16,3,0,0],
[12,16,2,0,0, 0,0, 0,0, 0,0],
[16,10,15,0,0, 0,0, 0,0, 0,0],
[50,3,9,2,9,2,8,3,8,0,0],
[23,7,13,8,13,8,12,7,12,0,0],
[13,8,2,0,0, 0,0, 0,0, 0,0],
[37,15,8,15,7,14,7,14,6,13,6],
[9,13,14,0,0, 0,0, 0,0, 0,0],
[24,4,8,4,7,5,7,0,0, 0,0],
[8,12,4,0,0, 0,0, 0,0, 0,0],
[31,15,9,16,9,16,10,0,0, 0,0],
[31,15,3,15,2,14,2,0,0, 0,0],
[32,9,4,9,3,10,3,11,3,0,0],
[15,4,14,0,0, 0,0, 0,0, 0,0],
[11,13,4,0,0, 0,0, 0,0, 0,0],
[12,6,16,0,0, 0,0, 0,0, 0,0],
[26,15,6,16,6,16,7,16,8,0,0],
[26,12,3,12,2,13,3,14,3,0,0],
[68,11,7,11,8,10,8,10,7,9,7],
[29,1,11,2,11,2,10,1,10,0,0],
[61,14,4,14,5,13,5,12,5,11,5],
[18,7,3,8,3,0,0, 0,0, 0,0],
[20,2,2,1,2,0,0, 0,0, 0,0],
[7,10,5,9,5,0,0, 0,0, 0,0],
[3,14,9,0,0, 0,0, 0,0, 0,0],
[37,6,13,6,14,5,14,5,13,4,13],
[12,14,13,0,0, 0,0, 0,0, 0,0],
[36,7,11,6,11,6,10,0,0, 0,0],
[36,10,12,11,12,12,12,12,13,0,0],
[5,13,9,0,0, 0,0, 0,0, 0,0],
[28,7,15,7,14,8,14,9,14,0,0],
[1,16,14,0,0, 0,0, 0,0, 0,0],
[17,2,4,2,3,1,3,1,4,0,0],
[40,8,10,9,10,10,10,10,9,9,9],
[5,11,14,0,0, 0,0, 0,0, 0,0],
[11,3,16,0,0, 0,0, 0,0, 0,0],
[7,15,14,15,15,0,0, 0,0, 0,0],
[38,5,5,6,5,7,5,7,6,0,0],
[21,12,11,12,10,0,0, 0,0, 0,0],
[3,5,16,0,0, 0,0, 0,0, 0,0],
[31,9,12,9,11,8,11,0,0, 0,0],
[28,13,10,14,10,0,0, 0,0, 0,0],
[15,16,15,0,0, 0,0, 0,0, 0,0],
[9,10,6,0,0, 0,0, 0,0, 0,0],
[30,3,4,3,5,4,5,4,6,3,6],
[14,3,13,3,14,0,0, 0,0, 0,0],
[9,8,7,0,0, 0,0, 0,0, 0,0],
[15,13,7,0,0, 0,0, 0,0, 0,0],
[2,2,15,0,0, 0,0, 0,0, 0,0],
[4,11,4,10,4,0,0, 0,0, 0,0],
[19,9,2,10,2,10,1,0,0, 0,0],
[23,5,10,4,10,3,10,0,0, 0,0],
[27,1,6,1,7,0,0, 0,0, 0,0],
[26,5,11,5,12,6,12,0,0, 0,0],
[12,1,1,2,1,0,0, 0,0, 0,0],
[13,1,5,0,0, 0,0, 0,0, 0,0],
[10,1,8,1,9,0,0, 0,0, 0,0],
[43,1,12,1,13,1,14,2,14,0,0],
[23,1,15,1,16,2,16,0,0, 0,0],
[32,2,5,2,6,2,7,3,7,0,0],
[48,3,15,4,15,4,16,5,15,6,15],
[44,4,1,5,1,5,2,5,3,6,3],
[44,4,4,5,4,6,4,7,4,0,0],
[11,4,9,0,0, 0,0, 0,0, 0,0],
[26,4,11,4,12,0,0, 0,0, 0,0],
[10,5,9,0,0, 0,0, 0,0, 0,0],
[10,6,1,0,0, 0,0, 0,0, 0,0],
[15,6,2,7,2,7,1,0,0, 0,0],
[4,6,9,0,0, 0,0, 0,0, 0,0],
[13,7,7,7,8,0,0, 0,0, 0,0],
[13,7,9,7,10,0,0, 0,0, 0,0],
[37,7,16,8,16,9,16,10,16,11,16],
[18,8,1,9,1,0,0, 0,0, 0,0],
[11,8,15,9,15,0,0, 0,0, 0,0],
[8,9,13,0,0, 0,0, 0,0, 0,0],
[34,10,13,10,14,11,13,0,0, 0,0],
[29,11,6,12,6,12,7,12,8,12,9],
[43,11,15,12,15,12,14,12,16,13,16],
[19,13,8,14,8,0,0, 0,0, 0,0],
[8,13,15,0,0, 0,0, 0,0, 0,0],
[13,14,1,0,0, 0,0, 0,0, 0,0],
[47,14,15,14,16,15,16,16,16,0,0],
[23,15,1,16,1,0,0, 0,0, 0,0],
[38,15,11,15,12,16,12,16,11,0,0],
[19,15,13,16,13,0,0, 0,0, 0,0]
]
